writeenable/we_formal_prove/model/design_smt2.smt2
; SMT-LIBv2 description generated by Yosys 0.34+43 (git sha1 d21c464ae, clang 10.0.0-4ubuntu1 -fPIC -Os)
; yosys-smt2-module we
(declare-sort |we_s| 0)
(declare-fun |we_is| (|we_s|) Bool)
; yosys-smt2-witness {"offset": 0, "path": ["\\r"], "smtname": 0, "smtoffset": 0, "type": "reg", "width": 64}
(declare-fun |we#0| (|we_s|) (_ BitVec 64)) ; \r
; yosys-smt2-output y 64
; yosys-smt2-wire y 64
(define-fun |we_n y| ((state |we_s|)) (_ BitVec 64) (|we#0| state))
(declare-fun |we#1| (|we_s|) Bool) ; \wn
; yosys-smt2-input wn 1
; yosys-smt2-wire wn 1
; yosys-smt2-witness {"offset": 0, "path": ["\\wn"], "smtname": "wn", "smtoffset": 0, "type": "input", "width": 1}
(define-fun |we_n wn| ((state |we_s|)) Bool (|we#1| state))
; yosys-smt2-register r 64
; yosys-smt2-wire r 64
(define-fun |we_n r| ((state |we_s|)) (_ BitVec 64) (|we#0| state))
(declare-fun |we#2| (|we_s|) (_ BitVec 64)) ; \in
; yosys-smt2-input in 64
; yosys-smt2-wire in 64
; yosys-smt2-witness {"offset": 0, "path": ["\\in"], "smtname": "in", "smtoffset": 0, "type": "input", "width": 64}
(define-fun |we_n in| ((state |we_s|)) (_ BitVec 64) (|we#2| state))
(declare-fun |we#3| (|we_s|) Bool) ; \clk
; yosys-smt2-input clk 1
; yosys-smt2-wire clk 1
; yosys-smt2-clock clk posedge
; yosys-smt2-witness {"offset": 0, "path": ["\\clk"], "smtname": "clk", "smtoffset": 0, "type": "posedge", "width": 1}
; yosys-smt2-witness {"offset": 0, "path": ["\\clk"], "smtname": "clk", "smtoffset": 0, "type": "input", "width": 1}
(define-fun |we_n clk| ((state |we_s|)) Bool (|we#3| state))
(define-fun |we#4| ((state |we_s|)) (_ BitVec 1) (bvnot (ite (|we#3| state) #b1 #b0))) ; $auto$rtlil.cc:2461:Not$62
; yosys-smt2-assume 0 $auto$formalff.cc:758:execute$63
(define-fun |we_u 0| ((state |we_s|)) Bool (or (= ((_ extract 0 0) (|we#4| state)) #b1) (not true))) ; $auto$formalff.cc:758:execute$63
(define-fun |we#5| ((state |we_s|)) (_ BitVec 64) (ite (|we#1| state) (|we#2| state) (|we#0| state))) ; $0\r[63:0]
(define-fun |we_a| ((state |we_s|)) Bool true)
(define-fun |we_u| ((state |we_s|)) Bool 
  (|we_u 0| state)
)
(define-fun |we_i| ((state |we_s|)) Bool 
  (= (|we#0| state) #b0000000000000000000000000000000000000000000000000000000000000000) ; r
)
(define-fun |we_h| ((state |we_s|)) Bool true)
(define-fun |we_t| ((state |we_s|) (next_state |we_s|)) Bool 
  (= (|we#5| state) (|we#0| next_state)) ; $procdff$41 \r
) ; end of module we
; yosys-smt2-module we_formal
(declare-sort |we_formal_s| 0)
(declare-fun |we_formal_is| (|we_formal_s|) Bool)
; yosys-smt2-cell we we
; yosys-smt2-witness {"path": ["\\we"], "smtname": "we", "type": "cell"}
(declare-fun |we_formal#0| (|we_formal_s|) (_ BitVec 64)) ; \y
(declare-fun |we_formal_h we| (|we_formal_s|) |we_s|)
; yosys-smt2-output y 64
; yosys-smt2-wire y 64
(define-fun |we_formal_n y| ((state |we_formal_s|)) (_ BitVec 64) (|we_formal#0| state))
(declare-fun |we_formal#1| (|we_formal_s|) Bool) ; \wn
; yosys-smt2-input wn 1
; yosys-smt2-wire wn 1
; yosys-smt2-witness {"offset": 0, "path": ["\\wn"], "smtname": "wn", "smtoffset": 0, "type": "input", "width": 1}
(define-fun |we_formal_n wn| ((state |we_formal_s|)) Bool (|we_formal#1| state))
; yosys-smt2-anyinit we_formal#2 1 we_formal.v:22.1-24.4
; yosys-smt2-witness {"offset": 0, "path": ["\\past_valid"], "smtname": 2, "smtoffset": 0, "type": "init", "width": 1}
(declare-fun |we_formal#2| (|we_formal_s|) (_ BitVec 1)) ; \past_valid
; yosys-smt2-register past_valid 1
; yosys-smt2-wire past_valid 1
(define-fun |we_formal_n past_valid| ((state |we_formal_s|)) Bool (= ((_ extract 0 0) (|we_formal#2| state)) #b1))
(declare-fun |we_formal#3| (|we_formal_s|) (_ BitVec 64)) ; \in
; yosys-smt2-input in 64
; yosys-smt2-wire in 64
; yosys-smt2-witness {"offset": 0, "path": ["\\in"], "smtname": "in", "smtoffset": 0, "type": "input", "width": 64}
(define-fun |we_formal_n in| ((state |we_formal_s|)) (_ BitVec 64) (|we_formal#3| state))
(declare-fun |we_formal#4| (|we_formal_s|) Bool) ; \clk
; yosys-smt2-input clk 1
; yosys-smt2-wire clk 1
; yosys-smt2-clock clk posedge
; yosys-smt2-witness {"offset": 0, "path": ["\\clk"], "smtname": "clk", "smtoffset": 0, "type": "posedge", "width": 1}
; yosys-smt2-witness {"offset": 0, "path": ["\\clk"], "smtname": "clk", "smtoffset": 0, "type": "input", "width": 1}
(define-fun |we_formal_n clk| ((state |we_formal_s|)) Bool (|we_formal#4| state))
; yosys-smt2-anyseq we_formal#5 1 $auto$setundef.cc:533:execute$56
; yosys-smt2-witness {"offset": 0, "path": ["\\_witness_", "\\anyseq_auto_setundef_cc_533_execute_56"], "smtname": 5, "smtoffset": 0, "type": "seq", "width": 1}
(declare-fun |we_formal#5| (|we_formal_s|) (_ BitVec 1)) ; \_witness_.anyseq_auto_setundef_cc_533_execute_56
; yosys-smt2-wire _witness_.anyseq_auto_setundef_cc_533_execute_56 1
(define-fun |we_formal_n _witness_.anyseq_auto_setundef_cc_533_execute_56| ((state |we_formal_s|)) Bool (= ((_ extract 0 0) (|we_formal#5| state)) #b1))
; yosys-smt2-anyseq we_formal#6 1 $auto$setundef.cc:533:execute$54
; yosys-smt2-witness {"offset": 0, "path": ["\\_witness_", "\\anyseq_auto_setundef_cc_533_execute_54"], "smtname": 6, "smtoffset": 0, "type": "seq", "width": 1}
(declare-fun |we_formal#6| (|we_formal_s|) (_ BitVec 1)) ; \_witness_.anyseq_auto_setundef_cc_533_execute_54
; yosys-smt2-wire _witness_.anyseq_auto_setundef_cc_533_execute_54 1
(define-fun |we_formal_n _witness_.anyseq_auto_setundef_cc_533_execute_54| ((state |we_formal_s|)) Bool (= ((_ extract 0 0) (|we_formal#6| state)) #b1))
; yosys-smt2-anyinit we_formal#7 1 we_formal.v:26.1-31.4
; yosys-smt2-witness {"offset": 0, "path": ["\\_witness_", "\\anyinit_procdff_44"], "smtname": 7, "smtoffset": 0, "type": "init", "width": 1}
(declare-fun |we_formal#7| (|we_formal_s|) (_ BitVec 1)) ; \_witness_.anyinit_procdff_44
; yosys-smt2-register _witness_.anyinit_procdff_44 1
; yosys-smt2-wire _witness_.anyinit_procdff_44 1
(define-fun |we_formal_n _witness_.anyinit_procdff_44| ((state |we_formal_s|)) Bool (= ((_ extract 0 0) (|we_formal#7| state)) #b1))
; yosys-smt2-anyinit we_formal#8 64 we_formal.v:26.1-31.4
; yosys-smt2-witness {"offset": 0, "path": ["\\_witness_", "\\anyinit_procdff_43"], "smtname": 8, "smtoffset": 0, "type": "init", "width": 64}
(declare-fun |we_formal#8| (|we_formal_s|) (_ BitVec 64)) ; \_witness_.anyinit_procdff_43
; yosys-smt2-register _witness_.anyinit_procdff_43 64
; yosys-smt2-wire _witness_.anyinit_procdff_43 64
(define-fun |we_formal_n _witness_.anyinit_procdff_43| ((state |we_formal_s|)) (_ BitVec 64) (|we_formal#8| state))
; yosys-smt2-anyinit we_formal#9 1 we_formal.v:26.1-31.4
; yosys-smt2-witness {"offset": 0, "path": ["\\_witness_", "\\anyinit_procdff_42"], "smtname": 9, "smtoffset": 0, "type": "init", "width": 1}
(declare-fun |we_formal#9| (|we_formal_s|) (_ BitVec 1)) ; \_witness_.anyinit_procdff_42
; yosys-smt2-register _witness_.anyinit_procdff_42 1
; yosys-smt2-wire _witness_.anyinit_procdff_42 1
(define-fun |we_formal_n _witness_.anyinit_procdff_42| ((state |we_formal_s|)) Bool (= ((_ extract 0 0) (|we_formal#9| state)) #b1))
; yosys-smt2-witness {"offset": 0, "path": ["$formal$we_formal.v:28$5_EN"], "smtname": 10, "smtoffset": 0, "type": "reg", "width": 1}
(declare-fun |we_formal#10| (|we_formal_s|) (_ BitVec 1)) ; $formal$we_formal.v:28$5_EN
; yosys-smt2-register $formal$we_formal.v:28$5_EN 1
(define-fun |we_formal_n $formal$we_formal.v:28$5_EN| ((state |we_formal_s|)) Bool (= ((_ extract 0 0) (|we_formal#10| state)) #b1))
(define-fun |we_formal#11| ((state |we_formal_s|)) (_ BitVec 1) (bvnot (ite (|we_formal#4| state) #b1 #b0))) ; $auto$rtlil.cc:2461:Not$59
; yosys-smt2-assume 0 $auto$formalff.cc:758:execute$60
(define-fun |we_formal_u 0| ((state |we_formal_s|)) Bool (or (= ((_ extract 0 0) (|we_formal#11| state)) #b1) (not true))) ; $auto$formalff.cc:758:execute$60
(define-fun |we_formal#12| ((state |we_formal_s|)) (_ BitVec 1) (bvnot (|we_formal#2| state))) ; $0$formal$we_formal.v:19$3_CHECK[0:0]$22
(define-fun |we_formal#13| ((state |we_formal_s|)) Bool (|we_formal_is| state)) ; $0$formal$we_formal.v:19$3_EN[0:0]$23
; yosys-smt2-assume 1 $assume$we_formal.v:19$18 we_formal.v:19.14-20.26
(define-fun |we_formal_u 1| ((state |we_formal_s|)) Bool (or (= ((_ extract 0 0) (|we_formal#12| state)) #b1) (not (|we_formal#13| state)))) ; $assume$we_formal.v:19$18
; yosys-smt2-assert 0 $assert$we_formal.v:28$19 we_formal.v:28.22-29.33
(define-fun |we_formal_a 0| ((state |we_formal_s|)) Bool (or (= ((_ extract 0 0) (|we_formal#7| state)) #b1) (not (= ((_ extract 0 0) (|we_formal#10| state)) #b1)))) ; $assert$we_formal.v:28$19
(define-fun |we_formal#14| ((state |we_formal_s|)) (_ BitVec 1) (ite (= ((_ extract 0 0) (|we_formal#9| state)) #b1) #b1 #b0)) ; $procmux$33_Y
(define-fun |we_formal#15| ((state |we_formal_s|)) (_ BitVec 1) (ite (= ((_ extract 0 0) (|we_formal#2| state)) #b1) (|we_formal#14| state) #b0)) ; $0$formal$we_formal.v:28$5_EN[0:0]$13
(define-fun |we_formal#16| ((state |we_formal_s|)) Bool (= (|we_formal#0| state) (|we_formal#8| state))) ; $eq$we_formal.v:29$16_Y
(define-fun |we_formal#17| ((state |we_formal_s|)) (_ BitVec 1) (ite (= ((_ extract 0 0) (|we_formal#9| state)) #b1) (ite (|we_formal#16| state) #b1 #b0) (|we_formal#6| state))) ; $procmux$37_Y
(define-fun |we_formal#18| ((state |we_formal_s|)) (_ BitVec 1) (ite (= ((_ extract 0 0) (|we_formal#2| state)) #b1) (|we_formal#17| state) (|we_formal#5| state))) ; $0$formal$we_formal.v:28$5_CHECK[0:0]$12
(define-fun |we_formal_a| ((state |we_formal_s|)) Bool (and
  (|we_formal_a 0| state)
  (|we_a| (|we_formal_h we| state))
))
(define-fun |we_formal_u| ((state |we_formal_s|)) Bool (and
  (|we_formal_u 0| state)
  (|we_formal_u 1| state)
  (|we_u| (|we_formal_h we| state))
))
(define-fun |we_formal_i| ((state |we_formal_s|)) Bool (and
  (= (= ((_ extract 0 0) (|we_formal#10| state)) #b1) false) ; $formal$we_formal.v:28$5_EN
  (|we_i| (|we_formal_h we| state))
))
(define-fun |we_formal_h| ((state |we_formal_s|)) Bool (and
  (= (|we_formal_is| state) (|we_is| (|we_formal_h we| state)))
  (= (|we_formal#0| state) (|we_n y| (|we_formal_h we| state))) ; we.y
  (= (|we_formal#1| state) (|we_n wn| (|we_formal_h we| state))) ; we.wn
  (= (|we_formal#3| state) (|we_n in| (|we_formal_h we| state))) ; we.in
  (= (|we_formal#4| state) (|we_n clk| (|we_formal_h we| state))) ; we.clk
  (|we_h| (|we_formal_h we| state))
))
(define-fun |we_formal_t| ((state |we_formal_s|) (next_state |we_formal_s|)) Bool (and
  (= (|we_formal#15| state) (|we_formal#10| next_state)) ; $procdff$45 $formal$we_formal.v:28$5_EN
  (= (ite (|we_formal#1| state) #b1 #b0) (|we_formal#9| next_state)) ; $procdff$42 \_witness_.anyinit_procdff_42
  (= (|we_formal#3| state) (|we_formal#8| next_state)) ; $procdff$43 \_witness_.anyinit_procdff_43
  (= (|we_formal#18| state) (|we_formal#7| next_state)) ; $procdff$44 \_witness_.anyinit_procdff_44
  (= #b1 (|we_formal#2| next_state)) ; $procdff$49 \past_valid
  (|we_t| (|we_formal_h we| state) (|we_formal_h we| next_state))
)) ; end of module we_formal
; yosys-smt2-topmod we_formal
; end of yosys output
